10	5
0	4	1	2	3	9
1	1	6
2	0
3	2	10	8
4	1	7
5	1	10
6	1	4
7	1	5
8	1	11
9	1	11
10	1	11
11	0
0	0	0	0	0	0	0
1	2	0	0	2	1	5
2	3	3	4	4	0	3
3	5	1	4	0	0	4
4	1	3	3	5	3	0
5	9	4	5	1	0	1
6	7	2	5	5	4	4
7	10	3	0	0	5	5
8	7	0	0	2	3	4
9	6	3	5	2	2	3
10	1	4	0	1	3	5
11	0	0	0	0	0	0
4	5	5	5	5
